p cnf 14 64
8 -10 -12 0
-3 4 14 0
2 5 6 0
-7 10 -11 0
-1 -6 7 0
6 8 9 0
2 3 -6 0
4 5 7 0
6 -8 -13 0
7 13 14 0
1 -7 8 0
3 -11 13 0
4 10 11 0
-4 6 8 0
-1 -7 -12 0
-3 7 -9 0
5 7 11 0
-5 10 -13 0
1 -2 -6 0
-9 -11 -12 0
-12 -13 14 0
6 7 10 0
-4 -7 11 0
6 -10 -14 0
3 7 10 0
11 12 -14 0
1 -5 -12 0
1 -8 10 0
-6 10 -12 0
6 -7 12 0
3 4 12 0
4 11 -14 0
4 -9 -14 0
3 11 -12 0
-6 8 14 0
-4 7 -11 0
-4 10 -13 0
2 -6 12 0
-3 -5 -11 0
-2 -9 -14 0
-4 -6 13 0
-1 3 -8 0
2 11 12 0
-2 -13 14 0
-1 -10 -12 0
1 5 7 0
2 -3 -10 0
-3 -11 -13 0
6 10 -14 0
10 12 13 0
5 -12 14 0
8 -11 12 0
-2 -3 -5 0
1 -3 11 0
-10 -12 13 0
-1 -2 -12 0
-3 11 12 0
6 -9 -12 0
4 8 9 0
1 5 -11 0
6 7 8 0
-1 -3 14 0
2 11 -13 0
-2 5 7 0
